ssat_solver_solve2
#level: 2
Abc_NtkNodeNum(s->pNtk): 1203  , BDD limit: 10240
level 1: 15 element
Exist
existence_eliminate_scope
Abc_NtkIsBddLogic(pNtk): 0
Abc_NtkIsStrash(pNtk): 1
existence_eliminate_scope_aig
exist by BDD failed
Abc_NtkNodeNum(s->pNtk): 897659  , BDD limit: 1077190
Build BDD success
level 0: 15 element
Random
c ssat solving in ABC
#var: 30
s SATISFIABLE
  > Upper bound = 9.596252e-01
  > Lower bound = 9.596252e-01
FINISHED CPU 31.27 MEM 0 MAXMEM 217968 STALE 0 MAXMEM_RSS 169912
<time name="ALL">31300</time>
real 31.41
user 36.23
sys 13.56
